50
3 0 10
4 1 9
5 0 1
5 1 9
5 2 2
5 4 9
6 1 7
6 4 5
7 0 4
7 2 5
7 5 6
7 6 7
8 2 6
8 3 3
8 5 8
8 6 9
8 7 2
9 0 8
9 1 6
9 4 9
9 5 2
9 8 4
10 1 4
10 2 8
10 4 5
10 5 8
10 7 9
10 8 1
11 0 2
11 2 4
11 3 2
11 4 7
11 6 10
11 7 6
11 8 6
11 9 3
12 0 6
12 5 5
12 6 5
12 7 4
12 8 8
12 11 7
13 2 7
13 3 3
13 4 6
13 5 6
13 8 7
13 12 10
14 0 9
14 4 3
14 5 4
14 7 10
14 9 8
14 12 5
14 13 4
15 0 10
15 1 4
15 2 9
15 5 7
15 6 10
15 9 3
15 11 8
15 13 3
16 3 2
16 4 6
16 6 8
16 7 2
16 8 10
16 10 3
16 12 1
17 0 7
17 1 7
17 3 6
17 4 8
17 7 1
17 10 2
17 11 8
17 12 1
17 13 1
18 0 9
18 4 3
18 5 2
18 6 3
18 7 1
18 10 6
18 13 7
18 15 8
19 0 5
19 5 9
19 8 10
19 11 4
19 16 5
20 3 1
20 5 1
20 7 2
20 8 3
20 9 6
20 10 10
20 11 2
20 12 1
20 13 4
21 0 1
21 4 8
21 5 4
21 7 10
21 11 10
21 20 6
22 2 2
22 4 9
22 5 5
22 6 7
22 7 1
22 8 10
22 9 7
22 10 8
22 11 10
22 14 1
22 16 1
22 18 2
22 19 7
23 1 10
23 2 2
23 7 2
23 8 4
23 10 4
23 11 7
23 13 6
23 16 8
23 18 1
23 20 6
23 21 6
24 1 2
24 2 5
24 3 9
24 4 8
24 5 1
24 8 1
24 10 3
24 11 7
24 13 8
24 16 8
24 18 5
24 20 9
24 21 2
25 0 1
25 2 2
25 5 5
25 7 1
25 8 5
25 12 8
25 13 7
25 14 2
25 17 7
25 18 9
25 21 6
25 24 1
26 1 7
26 2 9
26 3 8
26 5 9
26 10 4
26 11 8
26 13 9
26 14 2
26 15 4
26 16 10
26 20 5
26 21 9
26 23 9
26 25 4
27 0 2
27 3 2
27 4 6
27 8 1
27 11 8
27 15 7
27 20 8
27 25 3
27 26 6
28 0 9
28 1 10
28 4 7
28 7 2
28 26 5
29 0 7
29 1 4
29 4 2
29 5 4
29 7 10
29 11 3
29 13 6
29 14 10
29 16 6
29 18 5
29 20 3
29 21 10
29 23 2
29 24 5
29 25 8
29 26 10
29 28 1
30 0 7
30 2 7
30 3 4
30 4 1
30 6 2
30 9 5
30 13 5
30 16 10
30 18 6
30 19 7
30 25 2
30 26 5
30 28 10
30 29 8
31 0 8
31 2 8
31 13 5
31 14 2
31 18 3
31 21 8
31 25 8
31 26 5
31 29 9
31 30 8
32 0 9
32 1 8
32 2 5
32 3 4
32 5 10
32 6 8
32 7 6
32 10 5
32 12 1
32 13 4
32 17 3
32 18 10
32 19 2
32 20 5
32 21 4
32 22 6
32 23 5
32 24 7
32 27 3
32 28 8
32 29 5
32 30 1
32 31 10
33 0 10
33 2 1
33 4 7
33 5 10
33 6 10
33 10 8
33 12 5
33 15 2
33 16 6
33 19 9
33 20 9
33 21 3
33 22 4
33 23 10
33 24 1
33 25 7
33 27 3
33 29 1
33 31 10
34 0 6
34 1 9
34 2 9
34 9 7
34 10 9
34 11 5
34 12 1
34 14 4
34 16 7
34 21 3
34 22 9
34 29 10
34 33 8
35 0 1
35 1 7
35 3 8
35 4 3
35 5 7
35 6 9
35 9 3
35 11 7
35 13 7
35 18 6
35 19 8
35 20 6
35 21 7
35 24 5
35 28 10
35 34 10
36 0 4
36 1 3
36 2 6
36 3 7
36 5 4
36 6 7
36 15 1
36 16 7
36 17 2
36 21 7
36 24 9
36 25 7
36 26 4
36 27 1
36 29 7
36 31 4
36 32 6
37 1 7
37 2 1
37 5 1
37 8 9
37 10 4
37 11 8
37 12 7
37 15 9
37 16 3
37 17 1
37 18 5
37 19 8
37 21 5
37 26 3
37 28 2
37 29 1
37 30 4
37 31 7
37 32 8
37 33 10
37 34 5
37 35 7
38 0 5
38 1 3
38 2 10
38 5 10
38 6 10
38 7 1
38 11 9
38 12 1
38 13 9
38 14 4
38 17 9
38 26 2
38 27 3
38 29 8
38 31 8
38 32 2
38 33 1
38 37 5
39 2 6
39 6 5
39 8 1
39 9 9
39 10 2
39 11 8
39 14 5
39 18 4
39 21 1
39 25 4
39 29 3
39 30 6
39 32 6
39 33 7
39 34 9
39 35 9
39 37 5
39 38 9
40 0 4
40 4 8
40 8 10
40 12 1
40 13 2
40 18 6
40 20 2
40 22 4
40 24 3
40 25 3
40 27 3
40 31 9
40 32 10
40 34 5
40 37 3
40 38 3
41 3 9
41 4 4
41 5 6
41 6 9
41 7 8
41 8 4
41 11 4
41 17 4
41 18 6
41 19 6
41 20 5
41 21 9
41 22 9
41 24 10
41 25 6
41 27 6
41 28 7
41 30 6
41 31 6
41 32 3
41 35 1
41 38 10
42 6 5
42 13 6
42 15 7
42 17 3
42 21 3
42 22 7
42 23 9
42 24 3
42 30 7
42 32 6
42 34 10
42 35 6
42 37 8
42 38 8
42 40 3
43 0 2
43 5 8
43 10 1
43 11 3
43 12 6
43 13 1
43 14 8
43 15 10
43 16 6
43 17 1
43 18 6
43 28 1
43 30 9
43 31 7
43 35 3
43 38 2
43 42 5
44 0 9
44 2 8
44 6 10
44 9 10
44 11 1
44 12 1
44 13 7
44 15 3
44 16 3
44 20 1
44 21 7
44 24 7
44 25 5
44 26 2
44 31 7
44 32 5
44 33 9
44 36 5
44 37 2
45 0 2
45 3 8
45 7 8
45 10 10
45 14 4
45 18 3
45 19 7
45 22 10
45 23 10
45 25 4
45 30 3
45 32 7
45 34 10
45 37 7
45 38 8
45 40 10
45 41 9
45 42 8
45 43 1
45 44 2
46 0 5
46 1 4
46 4 2
46 5 1
46 6 2
46 7 6
46 9 7
46 10 9
46 11 7
46 13 3
46 14 3
46 15 8
46 16 7
46 17 10
46 22 8
46 23 3
46 25 8
46 28 1
46 29 8
46 30 10
46 32 9
46 38 7
46 41 5
46 43 5
47 0 7
47 7 5
47 8 5
47 10 9
47 13 3
47 14 6
47 15 6
47 16 6
47 17 5
47 19 5
47 20 7
47 21 2
47 22 10
47 23 10
47 26 10
47 27 3
47 28 4
47 30 9
47 34 6
47 35 4
47 36 1
47 37 8
47 42 2
47 45 4
47 46 8
48 1 1
48 2 6
48 3 4
48 5 10
48 6 6
48 14 3
48 15 7
48 18 9
48 20 2
48 24 9
48 30 5
48 31 4
48 34 7
48 36 5
48 37 8
48 39 10
48 40 6
48 41 3
48 45 3
48 47 2
49 0 8
49 1 6
49 5 8
49 7 7
49 12 5
49 14 5
49 16 8
49 19 2
49 25 8
49 26 5
49 28 1
49 29 5
49 30 7
49 32 6
49 34 10
49 36 7
49 39 10
49 40 2
49 46 7
